Minimize

x_0


Subject To

a0: x_0 - 0 r1_0_0 - 1 r1_0_1 - 2 r1_0_2 - 3 r1_0_3 - 4 r1_0_4 - 5 r1_0_5 - 6 r1_0_6 - 7 r1_0_7 - 8 r1_0_8 - 9 r1_0_9 = 0
a1: x_1 - 0 r1_1_0 - 1 r1_1_1 - 2 r1_1_2 - 3 r1_1_3 - 4 r1_1_4 - 5 r1_1_5 - 6 r1_1_6 - 7 r1_1_7 - 8 r1_1_8 - 9 r1_1_9 = 0
a2: x_2 - 0 r1_2_0 - 1 r1_2_1 - 2 r1_2_2 - 3 r1_2_3 - 4 r1_2_4 - 5 r1_2_5 - 6 r1_2_6 - 7 r1_2_7 - 8 r1_2_8 - 9 r1_2_9 = 0
a3: x_3 - 0 r1_3_0 - 1 r1_3_1 - 2 r1_3_2 - 3 r1_3_3 - 4 r1_3_4 - 5 r1_3_5 - 6 r1_3_6 - 7 r1_3_7 - 8 r1_3_8 - 9 r1_3_9 = 0
a4: x_4 - 0 r1_4_0 - 1 r1_4_1 - 2 r1_4_2 - 3 r1_4_3 - 4 r1_4_4 - 5 r1_4_5 - 6 r1_4_6 - 7 r1_4_7 - 8 r1_4_8 - 9 r1_4_9 = 0
a5: x_5 - 0 r1_5_0 - 1 r1_5_1 - 2 r1_5_2 - 3 r1_5_3 - 4 r1_5_4 - 5 r1_5_5 - 6 r1_5_6 - 7 r1_5_7 - 8 r1_5_8 - 9 r1_5_9 = 0
a6: x_6 - 0 r1_6_0 - 1 r1_6_1 - 2 r1_6_2 - 3 r1_6_3 - 4 r1_6_4 - 5 r1_6_5 - 6 r1_6_6 - 7 r1_6_7 - 8 r1_6_8 - 9 r1_6_9 = 0
a7: x_7 - 0 r1_7_0 - 1 r1_7_1 - 2 r1_7_2 - 3 r1_7_3 - 4 r1_7_4 - 5 r1_7_5 - 6 r1_7_6 - 7 r1_7_7 - 8 r1_7_8 - 9 r1_7_9 = 0
a8: x_8 - 0 r1_8_0 - 1 r1_8_1 - 2 r1_8_2 - 3 r1_8_3 - 4 r1_8_4 - 5 r1_8_5 - 6 r1_8_6 - 7 r1_8_7 - 8 r1_8_8 - 9 r1_8_9 = 0
a9: x_9 - 0 r1_9_0 - 1 r1_9_1 - 2 r1_9_2 - 3 r1_9_3 - 4 r1_9_4 - 5 r1_9_5 - 6 r1_9_6 - 7 r1_9_7 - 8 r1_9_8 - 9 r1_9_9 = 0
b0: r1_0_0 + r1_0_1 + r1_0_2 + r1_0_3 + r1_0_4 + r1_0_5 + r1_0_6 + r1_0_7 + r1_0_8 + r1_0_9 = 1
b1: r1_1_0 + r1_1_1 + r1_1_2 + r1_1_3 + r1_1_4 + r1_1_5 + r1_1_6 + r1_1_7 + r1_1_8 + r1_1_9 = 1
b2: r1_2_0 + r1_2_1 + r1_2_2 + r1_2_3 + r1_2_4 + r1_2_5 + r1_2_6 + r1_2_7 + r1_2_8 + r1_2_9 = 1
b3: r1_3_0 + r1_3_1 + r1_3_2 + r1_3_3 + r1_3_4 + r1_3_5 + r1_3_6 + r1_3_7 + r1_3_8 + r1_3_9 = 1
b4: r1_4_0 + r1_4_1 + r1_4_2 + r1_4_3 + r1_4_4 + r1_4_5 + r1_4_6 + r1_4_7 + r1_4_8 + r1_4_9 = 1
b5: r1_5_0 + r1_5_1 + r1_5_2 + r1_5_3 + r1_5_4 + r1_5_5 + r1_5_6 + r1_5_7 + r1_5_8 + r1_5_9 = 1
b6: r1_6_0 + r1_6_1 + r1_6_2 + r1_6_3 + r1_6_4 + r1_6_5 + r1_6_6 + r1_6_7 + r1_6_8 + r1_6_9 = 1
b7: r1_7_0 + r1_7_1 + r1_7_2 + r1_7_3 + r1_7_4 + r1_7_5 + r1_7_6 + r1_7_7 + r1_7_8 + r1_7_9 = 1
b8: r1_8_0 + r1_8_1 + r1_8_2 + r1_8_3 + r1_8_4 + r1_8_5 + r1_8_6 + r1_8_7 + r1_8_8 + r1_8_9 = 1
b9: r1_9_0 + r1_9_1 + r1_9_2 + r1_9_3 + r1_9_4 + r1_9_5 + r1_9_6 + r1_9_7 + r1_9_8 + r1_9_9 = 1
c0: r1_0_0 + r1_1_0 + r1_2_0 + r1_3_0 + r1_4_0 + r1_5_0 + r1_6_0 + r1_7_0 + r1_8_0 + r1_9_0 = 1
c1: r1_0_1 + r1_1_1 + r1_2_1 + r1_3_1 + r1_4_1 + r1_5_1 + r1_6_1 + r1_7_1 + r1_8_1 + r1_9_1 = 1
c2: r1_0_2 + r1_1_2 + r1_2_2 + r1_3_2 + r1_4_2 + r1_5_2 + r1_6_2 + r1_7_2 + r1_8_2 + r1_9_2 = 1
c3: r1_0_3 + r1_1_3 + r1_2_3 + r1_3_3 + r1_4_3 + r1_5_3 + r1_6_3 + r1_7_3 + r1_8_3 + r1_9_3 = 1
c4: r1_0_4 + r1_1_4 + r1_2_4 + r1_3_4 + r1_4_4 + r1_5_4 + r1_6_4 + r1_7_4 + r1_8_4 + r1_9_4 = 1
c5: r1_0_5 + r1_1_5 + r1_2_5 + r1_3_5 + r1_4_5 + r1_5_5 + r1_6_5 + r1_7_5 + r1_8_5 + r1_9_5 = 1
c6: r1_0_6 + r1_1_6 + r1_2_6 + r1_3_6 + r1_4_6 + r1_5_6 + r1_6_6 + r1_7_6 + r1_8_6 + r1_9_6 = 1
c7: r1_0_7 + r1_1_7 + r1_2_7 + r1_3_7 + r1_4_7 + r1_5_7 + r1_6_7 + r1_7_7 + r1_8_7 + r1_9_7 = 1
c8: r1_0_8 + r1_1_8 + r1_2_8 + r1_3_8 + r1_4_8 + r1_5_8 + r1_6_8 + r1_7_8 + r1_8_8 + r1_9_8 = 1
c9: r1_0_9 + r1_1_9 + r1_2_9 + r1_3_9 + r1_4_9 + r1_5_9 + r1_6_9 + r1_7_9 + r1_8_9 + r1_9_9 = 1
d0: x_0 - -9 r2_0_-9 - -8 r2_0_-8 - -7 r2_0_-7 - -6 r2_0_-6 - -5 r2_0_-5 - -4 r2_0_-4 - -3 r2_0_-3 - -2 r2_0_-2 - -1 r2_0_-1 - 0 r2_0_0 - 1 r2_0_1 - 2 r2_0_2 - 3 r2_0_3 - 4 r2_0_4 - 5 r2_0_5 - 6 r2_0_6 - 7 r2_0_7 - 8 r2_0_8 - 9 r2_0_9 = 0
d1: x_1 - -9 r2_1_-9 - -8 r2_1_-8 - -7 r2_1_-7 - -6 r2_1_-6 - -5 r2_1_-5 - -4 r2_1_-4 - -3 r2_1_-3 - -2 r2_1_-2 - -1 r2_1_-1 - 0 r2_1_0 - 1 r2_1_1 - 2 r2_1_2 - 3 r2_1_3 - 4 r2_1_4 - 5 r2_1_5 - 6 r2_1_6 - 7 r2_1_7 - 8 r2_1_8 - 9 r2_1_9 = 1
d2: x_2 - -9 r2_2_-9 - -8 r2_2_-8 - -7 r2_2_-7 - -6 r2_2_-6 - -5 r2_2_-5 - -4 r2_2_-4 - -3 r2_2_-3 - -2 r2_2_-2 - -1 r2_2_-1 - 0 r2_2_0 - 1 r2_2_1 - 2 r2_2_2 - 3 r2_2_3 - 4 r2_2_4 - 5 r2_2_5 - 6 r2_2_6 - 7 r2_2_7 - 8 r2_2_8 - 9 r2_2_9 = 2
d3: x_3 - -9 r2_3_-9 - -8 r2_3_-8 - -7 r2_3_-7 - -6 r2_3_-6 - -5 r2_3_-5 - -4 r2_3_-4 - -3 r2_3_-3 - -2 r2_3_-2 - -1 r2_3_-1 - 0 r2_3_0 - 1 r2_3_1 - 2 r2_3_2 - 3 r2_3_3 - 4 r2_3_4 - 5 r2_3_5 - 6 r2_3_6 - 7 r2_3_7 - 8 r2_3_8 - 9 r2_3_9 = 3
d4: x_4 - -9 r2_4_-9 - -8 r2_4_-8 - -7 r2_4_-7 - -6 r2_4_-6 - -5 r2_4_-5 - -4 r2_4_-4 - -3 r2_4_-3 - -2 r2_4_-2 - -1 r2_4_-1 - 0 r2_4_0 - 1 r2_4_1 - 2 r2_4_2 - 3 r2_4_3 - 4 r2_4_4 - 5 r2_4_5 - 6 r2_4_6 - 7 r2_4_7 - 8 r2_4_8 - 9 r2_4_9 = 4
d5: x_5 - -9 r2_5_-9 - -8 r2_5_-8 - -7 r2_5_-7 - -6 r2_5_-6 - -5 r2_5_-5 - -4 r2_5_-4 - -3 r2_5_-3 - -2 r2_5_-2 - -1 r2_5_-1 - 0 r2_5_0 - 1 r2_5_1 - 2 r2_5_2 - 3 r2_5_3 - 4 r2_5_4 - 5 r2_5_5 - 6 r2_5_6 - 7 r2_5_7 - 8 r2_5_8 - 9 r2_5_9 = 5
d6: x_6 - -9 r2_6_-9 - -8 r2_6_-8 - -7 r2_6_-7 - -6 r2_6_-6 - -5 r2_6_-5 - -4 r2_6_-4 - -3 r2_6_-3 - -2 r2_6_-2 - -1 r2_6_-1 - 0 r2_6_0 - 1 r2_6_1 - 2 r2_6_2 - 3 r2_6_3 - 4 r2_6_4 - 5 r2_6_5 - 6 r2_6_6 - 7 r2_6_7 - 8 r2_6_8 - 9 r2_6_9 = 6
d7: x_7 - -9 r2_7_-9 - -8 r2_7_-8 - -7 r2_7_-7 - -6 r2_7_-6 - -5 r2_7_-5 - -4 r2_7_-4 - -3 r2_7_-3 - -2 r2_7_-2 - -1 r2_7_-1 - 0 r2_7_0 - 1 r2_7_1 - 2 r2_7_2 - 3 r2_7_3 - 4 r2_7_4 - 5 r2_7_5 - 6 r2_7_6 - 7 r2_7_7 - 8 r2_7_8 - 9 r2_7_9 = 7
d8: x_8 - -9 r2_8_-9 - -8 r2_8_-8 - -7 r2_8_-7 - -6 r2_8_-6 - -5 r2_8_-5 - -4 r2_8_-4 - -3 r2_8_-3 - -2 r2_8_-2 - -1 r2_8_-1 - 0 r2_8_0 - 1 r2_8_1 - 2 r2_8_2 - 3 r2_8_3 - 4 r2_8_4 - 5 r2_8_5 - 6 r2_8_6 - 7 r2_8_7 - 8 r2_8_8 - 9 r2_8_9 = 8
d9: x_9 - -9 r2_9_-9 - -8 r2_9_-8 - -7 r2_9_-7 - -6 r2_9_-6 - -5 r2_9_-5 - -4 r2_9_-4 - -3 r2_9_-3 - -2 r2_9_-2 - -1 r2_9_-1 - 0 r2_9_0 - 1 r2_9_1 - 2 r2_9_2 - 3 r2_9_3 - 4 r2_9_4 - 5 r2_9_5 - 6 r2_9_6 - 7 r2_9_7 - 8 r2_9_8 - 9 r2_9_9 = 9
e0: r2_0_-9 + r2_0_-8 + r2_0_-7 + r2_0_-6 + r2_0_-5 + r2_0_-4 + r2_0_-3 + r2_0_-2 + r2_0_-1 + r2_0_0 + r2_0_1 + r2_0_2 + r2_0_3 + r2_0_4 + r2_0_5 + r2_0_6 + r2_0_7 + r2_0_8 + r2_0_9 = 1
e1: r2_1_-9 + r2_1_-8 + r2_1_-7 + r2_1_-6 + r2_1_-5 + r2_1_-4 + r2_1_-3 + r2_1_-2 + r2_1_-1 + r2_1_0 + r2_1_1 + r2_1_2 + r2_1_3 + r2_1_4 + r2_1_5 + r2_1_6 + r2_1_7 + r2_1_8 + r2_1_9 = 1
e2: r2_2_-9 + r2_2_-8 + r2_2_-7 + r2_2_-6 + r2_2_-5 + r2_2_-4 + r2_2_-3 + r2_2_-2 + r2_2_-1 + r2_2_0 + r2_2_1 + r2_2_2 + r2_2_3 + r2_2_4 + r2_2_5 + r2_2_6 + r2_2_7 + r2_2_8 + r2_2_9 = 1
e3: r2_3_-9 + r2_3_-8 + r2_3_-7 + r2_3_-6 + r2_3_-5 + r2_3_-4 + r2_3_-3 + r2_3_-2 + r2_3_-1 + r2_3_0 + r2_3_1 + r2_3_2 + r2_3_3 + r2_3_4 + r2_3_5 + r2_3_6 + r2_3_7 + r2_3_8 + r2_3_9 = 1
e4: r2_4_-9 + r2_4_-8 + r2_4_-7 + r2_4_-6 + r2_4_-5 + r2_4_-4 + r2_4_-3 + r2_4_-2 + r2_4_-1 + r2_4_0 + r2_4_1 + r2_4_2 + r2_4_3 + r2_4_4 + r2_4_5 + r2_4_6 + r2_4_7 + r2_4_8 + r2_4_9 = 1
e5: r2_5_-9 + r2_5_-8 + r2_5_-7 + r2_5_-6 + r2_5_-5 + r2_5_-4 + r2_5_-3 + r2_5_-2 + r2_5_-1 + r2_5_0 + r2_5_1 + r2_5_2 + r2_5_3 + r2_5_4 + r2_5_5 + r2_5_6 + r2_5_7 + r2_5_8 + r2_5_9 = 1
e6: r2_6_-9 + r2_6_-8 + r2_6_-7 + r2_6_-6 + r2_6_-5 + r2_6_-4 + r2_6_-3 + r2_6_-2 + r2_6_-1 + r2_6_0 + r2_6_1 + r2_6_2 + r2_6_3 + r2_6_4 + r2_6_5 + r2_6_6 + r2_6_7 + r2_6_8 + r2_6_9 = 1
e7: r2_7_-9 + r2_7_-8 + r2_7_-7 + r2_7_-6 + r2_7_-5 + r2_7_-4 + r2_7_-3 + r2_7_-2 + r2_7_-1 + r2_7_0 + r2_7_1 + r2_7_2 + r2_7_3 + r2_7_4 + r2_7_5 + r2_7_6 + r2_7_7 + r2_7_8 + r2_7_9 = 1
e8: r2_8_-9 + r2_8_-8 + r2_8_-7 + r2_8_-6 + r2_8_-5 + r2_8_-4 + r2_8_-3 + r2_8_-2 + r2_8_-1 + r2_8_0 + r2_8_1 + r2_8_2 + r2_8_3 + r2_8_4 + r2_8_5 + r2_8_6 + r2_8_7 + r2_8_8 + r2_8_9 = 1
e9: r2_9_-9 + r2_9_-8 + r2_9_-7 + r2_9_-6 + r2_9_-5 + r2_9_-4 + r2_9_-3 + r2_9_-2 + r2_9_-1 + r2_9_0 + r2_9_1 + r2_9_2 + r2_9_3 + r2_9_4 + r2_9_5 + r2_9_6 + r2_9_7 + r2_9_8 + r2_9_9 = 1
f0: r2_0_-9 + r2_1_-9 + r2_2_-9 + r2_3_-9 + r2_4_-9 + r2_5_-9 + r2_6_-9 + r2_7_-9 + r2_8_-9 + r2_9_-9 <= 2
f1: r2_0_-8 + r2_1_-8 + r2_2_-8 + r2_3_-8 + r2_4_-8 + r2_5_-8 + r2_6_-8 + r2_7_-8 + r2_8_-8 + r2_9_-8 <= 2
f2: r2_0_-7 + r2_1_-7 + r2_2_-7 + r2_3_-7 + r2_4_-7 + r2_5_-7 + r2_6_-7 + r2_7_-7 + r2_8_-7 + r2_9_-7 <= 2
f3: r2_0_-6 + r2_1_-6 + r2_2_-6 + r2_3_-6 + r2_4_-6 + r2_5_-6 + r2_6_-6 + r2_7_-6 + r2_8_-6 + r2_9_-6 <= 2
f4: r2_0_-5 + r2_1_-5 + r2_2_-5 + r2_3_-5 + r2_4_-5 + r2_5_-5 + r2_6_-5 + r2_7_-5 + r2_8_-5 + r2_9_-5 <= 2
f5: r2_0_-4 + r2_1_-4 + r2_2_-4 + r2_3_-4 + r2_4_-4 + r2_5_-4 + r2_6_-4 + r2_7_-4 + r2_8_-4 + r2_9_-4 <= 2
f6: r2_0_-3 + r2_1_-3 + r2_2_-3 + r2_3_-3 + r2_4_-3 + r2_5_-3 + r2_6_-3 + r2_7_-3 + r2_8_-3 + r2_9_-3 <= 2
f7: r2_0_-2 + r2_1_-2 + r2_2_-2 + r2_3_-2 + r2_4_-2 + r2_5_-2 + r2_6_-2 + r2_7_-2 + r2_8_-2 + r2_9_-2 <= 2
f8: r2_0_-1 + r2_1_-1 + r2_2_-1 + r2_3_-1 + r2_4_-1 + r2_5_-1 + r2_6_-1 + r2_7_-1 + r2_8_-1 + r2_9_-1 <= 2
f9: r2_0_0 + r2_1_0 + r2_2_0 + r2_3_0 + r2_4_0 + r2_5_0 + r2_6_0 + r2_7_0 + r2_8_0 + r2_9_0 <= 2
f10: r2_0_1 + r2_1_1 + r2_2_1 + r2_3_1 + r2_4_1 + r2_5_1 + r2_6_1 + r2_7_1 + r2_8_1 + r2_9_1 <= 2
f11: r2_0_2 + r2_1_2 + r2_2_2 + r2_3_2 + r2_4_2 + r2_5_2 + r2_6_2 + r2_7_2 + r2_8_2 + r2_9_2 <= 2
f12: r2_0_3 + r2_1_3 + r2_2_3 + r2_3_3 + r2_4_3 + r2_5_3 + r2_6_3 + r2_7_3 + r2_8_3 + r2_9_3 <= 2
f13: r2_0_4 + r2_1_4 + r2_2_4 + r2_3_4 + r2_4_4 + r2_5_4 + r2_6_4 + r2_7_4 + r2_8_4 + r2_9_4 <= 2
f14: r2_0_5 + r2_1_5 + r2_2_5 + r2_3_5 + r2_4_5 + r2_5_5 + r2_6_5 + r2_7_5 + r2_8_5 + r2_9_5 <= 2
f15: r2_0_6 + r2_1_6 + r2_2_6 + r2_3_6 + r2_4_6 + r2_5_6 + r2_6_6 + r2_7_6 + r2_8_6 + r2_9_6 <= 2
f16: r2_0_7 + r2_1_7 + r2_2_7 + r2_3_7 + r2_4_7 + r2_5_7 + r2_6_7 + r2_7_7 + r2_8_7 + r2_9_7 <= 2
f17: r2_0_8 + r2_1_8 + r2_2_8 + r2_3_8 + r2_4_8 + r2_5_8 + r2_6_8 + r2_7_8 + r2_8_8 + r2_9_8 <= 2
f18: r2_0_9 + r2_1_9 + r2_2_9 + r2_3_9 + r2_4_9 + r2_5_9 + r2_6_9 + r2_7_9 + r2_8_9 + r2_9_9 <= 2
g0: x_0 - 0 r3_0_0 - 1 r3_0_1 - 2 r3_0_2 - 3 r3_0_3 - 4 r3_0_4 - 5 r3_0_5 - 6 r3_0_6 - 7 r3_0_7 - 8 r3_0_8 - 9 r3_0_9 - 10 r3_0_10 - 11 r3_0_11 - 12 r3_0_12 - 13 r3_0_13 - 14 r3_0_14 - 15 r3_0_15 - 16 r3_0_16 - 17 r3_0_17 - 18 r3_0_18 = 0
g1: x_1 - 0 r3_1_0 - 1 r3_1_1 - 2 r3_1_2 - 3 r3_1_3 - 4 r3_1_4 - 5 r3_1_5 - 6 r3_1_6 - 7 r3_1_7 - 8 r3_1_8 - 9 r3_1_9 - 10 r3_1_10 - 11 r3_1_11 - 12 r3_1_12 - 13 r3_1_13 - 14 r3_1_14 - 15 r3_1_15 - 16 r3_1_16 - 17 r3_1_17 - 18 r3_1_18 = -1
g2: x_2 - 0 r3_2_0 - 1 r3_2_1 - 2 r3_2_2 - 3 r3_2_3 - 4 r3_2_4 - 5 r3_2_5 - 6 r3_2_6 - 7 r3_2_7 - 8 r3_2_8 - 9 r3_2_9 - 10 r3_2_10 - 11 r3_2_11 - 12 r3_2_12 - 13 r3_2_13 - 14 r3_2_14 - 15 r3_2_15 - 16 r3_2_16 - 17 r3_2_17 - 18 r3_2_18 = -2
g3: x_3 - 0 r3_3_0 - 1 r3_3_1 - 2 r3_3_2 - 3 r3_3_3 - 4 r3_3_4 - 5 r3_3_5 - 6 r3_3_6 - 7 r3_3_7 - 8 r3_3_8 - 9 r3_3_9 - 10 r3_3_10 - 11 r3_3_11 - 12 r3_3_12 - 13 r3_3_13 - 14 r3_3_14 - 15 r3_3_15 - 16 r3_3_16 - 17 r3_3_17 - 18 r3_3_18 = -3
g4: x_4 - 0 r3_4_0 - 1 r3_4_1 - 2 r3_4_2 - 3 r3_4_3 - 4 r3_4_4 - 5 r3_4_5 - 6 r3_4_6 - 7 r3_4_7 - 8 r3_4_8 - 9 r3_4_9 - 10 r3_4_10 - 11 r3_4_11 - 12 r3_4_12 - 13 r3_4_13 - 14 r3_4_14 - 15 r3_4_15 - 16 r3_4_16 - 17 r3_4_17 - 18 r3_4_18 = -4
g5: x_5 - 0 r3_5_0 - 1 r3_5_1 - 2 r3_5_2 - 3 r3_5_3 - 4 r3_5_4 - 5 r3_5_5 - 6 r3_5_6 - 7 r3_5_7 - 8 r3_5_8 - 9 r3_5_9 - 10 r3_5_10 - 11 r3_5_11 - 12 r3_5_12 - 13 r3_5_13 - 14 r3_5_14 - 15 r3_5_15 - 16 r3_5_16 - 17 r3_5_17 - 18 r3_5_18 = -5
g6: x_6 - 0 r3_6_0 - 1 r3_6_1 - 2 r3_6_2 - 3 r3_6_3 - 4 r3_6_4 - 5 r3_6_5 - 6 r3_6_6 - 7 r3_6_7 - 8 r3_6_8 - 9 r3_6_9 - 10 r3_6_10 - 11 r3_6_11 - 12 r3_6_12 - 13 r3_6_13 - 14 r3_6_14 - 15 r3_6_15 - 16 r3_6_16 - 17 r3_6_17 - 18 r3_6_18 = -6
g7: x_7 - 0 r3_7_0 - 1 r3_7_1 - 2 r3_7_2 - 3 r3_7_3 - 4 r3_7_4 - 5 r3_7_5 - 6 r3_7_6 - 7 r3_7_7 - 8 r3_7_8 - 9 r3_7_9 - 10 r3_7_10 - 11 r3_7_11 - 12 r3_7_12 - 13 r3_7_13 - 14 r3_7_14 - 15 r3_7_15 - 16 r3_7_16 - 17 r3_7_17 - 18 r3_7_18 = -7
g8: x_8 - 0 r3_8_0 - 1 r3_8_1 - 2 r3_8_2 - 3 r3_8_3 - 4 r3_8_4 - 5 r3_8_5 - 6 r3_8_6 - 7 r3_8_7 - 8 r3_8_8 - 9 r3_8_9 - 10 r3_8_10 - 11 r3_8_11 - 12 r3_8_12 - 13 r3_8_13 - 14 r3_8_14 - 15 r3_8_15 - 16 r3_8_16 - 17 r3_8_17 - 18 r3_8_18 = -8
g9: x_9 - 0 r3_9_0 - 1 r3_9_1 - 2 r3_9_2 - 3 r3_9_3 - 4 r3_9_4 - 5 r3_9_5 - 6 r3_9_6 - 7 r3_9_7 - 8 r3_9_8 - 9 r3_9_9 - 10 r3_9_10 - 11 r3_9_11 - 12 r3_9_12 - 13 r3_9_13 - 14 r3_9_14 - 15 r3_9_15 - 16 r3_9_16 - 17 r3_9_17 - 18 r3_9_18 = -9
h0: r2_0_0 + r2_0_1 + r2_0_2 + r2_0_3 + r2_0_4 + r2_0_5 + r2_0_6 + r2_0_7 + r2_0_8 + r2_0_9 + r2_0_10 + r2_0_11 + r2_0_12 + r2_0_13 + r2_0_14 + r2_0_15 + r2_0_16 + r2_0_17 + r2_0_18 = 1
h1: r2_1_0 + r2_1_1 + r2_1_2 + r2_1_3 + r2_1_4 + r2_1_5 + r2_1_6 + r2_1_7 + r2_1_8 + r2_1_9 + r2_1_10 + r2_1_11 + r2_1_12 + r2_1_13 + r2_1_14 + r2_1_15 + r2_1_16 + r2_1_17 + r2_1_18 = 1
h2: r2_2_0 + r2_2_1 + r2_2_2 + r2_2_3 + r2_2_4 + r2_2_5 + r2_2_6 + r2_2_7 + r2_2_8 + r2_2_9 + r2_2_10 + r2_2_11 + r2_2_12 + r2_2_13 + r2_2_14 + r2_2_15 + r2_2_16 + r2_2_17 + r2_2_18 = 1
h3: r2_3_0 + r2_3_1 + r2_3_2 + r2_3_3 + r2_3_4 + r2_3_5 + r2_3_6 + r2_3_7 + r2_3_8 + r2_3_9 + r2_3_10 + r2_3_11 + r2_3_12 + r2_3_13 + r2_3_14 + r2_3_15 + r2_3_16 + r2_3_17 + r2_3_18 = 1
h4: r2_4_0 + r2_4_1 + r2_4_2 + r2_4_3 + r2_4_4 + r2_4_5 + r2_4_6 + r2_4_7 + r2_4_8 + r2_4_9 + r2_4_10 + r2_4_11 + r2_4_12 + r2_4_13 + r2_4_14 + r2_4_15 + r2_4_16 + r2_4_17 + r2_4_18 = 1
h5: r2_5_0 + r2_5_1 + r2_5_2 + r2_5_3 + r2_5_4 + r2_5_5 + r2_5_6 + r2_5_7 + r2_5_8 + r2_5_9 + r2_5_10 + r2_5_11 + r2_5_12 + r2_5_13 + r2_5_14 + r2_5_15 + r2_5_16 + r2_5_17 + r2_5_18 = 1
h6: r2_6_0 + r2_6_1 + r2_6_2 + r2_6_3 + r2_6_4 + r2_6_5 + r2_6_6 + r2_6_7 + r2_6_8 + r2_6_9 + r2_6_10 + r2_6_11 + r2_6_12 + r2_6_13 + r2_6_14 + r2_6_15 + r2_6_16 + r2_6_17 + r2_6_18 = 1
h7: r2_7_0 + r2_7_1 + r2_7_2 + r2_7_3 + r2_7_4 + r2_7_5 + r2_7_6 + r2_7_7 + r2_7_8 + r2_7_9 + r2_7_10 + r2_7_11 + r2_7_12 + r2_7_13 + r2_7_14 + r2_7_15 + r2_7_16 + r2_7_17 + r2_7_18 = 1
h8: r2_8_0 + r2_8_1 + r2_8_2 + r2_8_3 + r2_8_4 + r2_8_5 + r2_8_6 + r2_8_7 + r2_8_8 + r2_8_9 + r2_8_10 + r2_8_11 + r2_8_12 + r2_8_13 + r2_8_14 + r2_8_15 + r2_8_16 + r2_8_17 + r2_8_18 = 1
h9: r2_9_0 + r2_9_1 + r2_9_2 + r2_9_3 + r2_9_4 + r2_9_5 + r2_9_6 + r2_9_7 + r2_9_8 + r2_9_9 + r2_9_10 + r2_9_11 + r2_9_12 + r2_9_13 + r2_9_14 + r2_9_15 + r2_9_16 + r2_9_17 + r2_9_18 = 1
p0: r2_0_-9 + r2_1_-9 + r2_2_-9 + r2_3_-9 + r2_4_-9 + r2_5_-9 + r2_6_-9 + r2_7_-9 + r2_8_-9 + r2_9_-9 <= 2
p1: r2_0_-8 + r2_1_-8 + r2_2_-8 + r2_3_-8 + r2_4_-8 + r2_5_-8 + r2_6_-8 + r2_7_-8 + r2_8_-8 + r2_9_-8 <= 2
p2: r2_0_-7 + r2_1_-7 + r2_2_-7 + r2_3_-7 + r2_4_-7 + r2_5_-7 + r2_6_-7 + r2_7_-7 + r2_8_-7 + r2_9_-7 <= 2
p3: r2_0_-6 + r2_1_-6 + r2_2_-6 + r2_3_-6 + r2_4_-6 + r2_5_-6 + r2_6_-6 + r2_7_-6 + r2_8_-6 + r2_9_-6 <= 2
p4: r2_0_-5 + r2_1_-5 + r2_2_-5 + r2_3_-5 + r2_4_-5 + r2_5_-5 + r2_6_-5 + r2_7_-5 + r2_8_-5 + r2_9_-5 <= 2
p5: r2_0_-4 + r2_1_-4 + r2_2_-4 + r2_3_-4 + r2_4_-4 + r2_5_-4 + r2_6_-4 + r2_7_-4 + r2_8_-4 + r2_9_-4 <= 2
p6: r2_0_-3 + r2_1_-3 + r2_2_-3 + r2_3_-3 + r2_4_-3 + r2_5_-3 + r2_6_-3 + r2_7_-3 + r2_8_-3 + r2_9_-3 <= 2
p7: r2_0_-2 + r2_1_-2 + r2_2_-2 + r2_3_-2 + r2_4_-2 + r2_5_-2 + r2_6_-2 + r2_7_-2 + r2_8_-2 + r2_9_-2 <= 2
p8: r2_0_-1 + r2_1_-1 + r2_2_-1 + r2_3_-1 + r2_4_-1 + r2_5_-1 + r2_6_-1 + r2_7_-1 + r2_8_-1 + r2_9_-1 <= 2
p9: r2_0_0 + r2_1_0 + r2_2_0 + r2_3_0 + r2_4_0 + r2_5_0 + r2_6_0 + r2_7_0 + r2_8_0 + r2_9_0 <= 2
p10: r2_0_1 + r2_1_1 + r2_2_1 + r2_3_1 + r2_4_1 + r2_5_1 + r2_6_1 + r2_7_1 + r2_8_1 + r2_9_1 <= 2
p11: r2_0_2 + r2_1_2 + r2_2_2 + r2_3_2 + r2_4_2 + r2_5_2 + r2_6_2 + r2_7_2 + r2_8_2 + r2_9_2 <= 2
p12: r2_0_3 + r2_1_3 + r2_2_3 + r2_3_3 + r2_4_3 + r2_5_3 + r2_6_3 + r2_7_3 + r2_8_3 + r2_9_3 <= 2
p13: r2_0_4 + r2_1_4 + r2_2_4 + r2_3_4 + r2_4_4 + r2_5_4 + r2_6_4 + r2_7_4 + r2_8_4 + r2_9_4 <= 2
p14: r2_0_5 + r2_1_5 + r2_2_5 + r2_3_5 + r2_4_5 + r2_5_5 + r2_6_5 + r2_7_5 + r2_8_5 + r2_9_5 <= 2
p15: r2_0_6 + r2_1_6 + r2_2_6 + r2_3_6 + r2_4_6 + r2_5_6 + r2_6_6 + r2_7_6 + r2_8_6 + r2_9_6 <= 2
p16: r2_0_7 + r2_1_7 + r2_2_7 + r2_3_7 + r2_4_7 + r2_5_7 + r2_6_7 + r2_7_7 + r2_8_7 + r2_9_7 <= 2
p17: r2_0_8 + r2_1_8 + r2_2_8 + r2_3_8 + r2_4_8 + r2_5_8 + r2_6_8 + r2_7_8 + r2_8_8 + r2_9_8 <= 2
p18: r2_0_9 + r2_1_9 + r2_2_9 + r2_3_9 + r2_4_9 + r2_5_9 + r2_6_9 + r2_7_9 + r2_8_9 + r2_9_9 <= 2



Bounds


x_0 < 10
x_1 < 10
x_2 < 10
x_3 < 10
x_4 < 10
x_5 < 10
x_6 < 10
x_7 < 10
x_8 < 10
x_9 < 10



Binary

r1_0_0 r1_0_1 r1_0_2 r1_0_3 r1_0_4 r1_0_5 r1_0_6 r1_0_7 r1_0_8 r1_0_9 r1_1_0 r1_1_1 r1_1_2 r1_1_3 r1_1_4 r1_1_5 r1_1_6 r1_1_7 r1_1_8 r1_1_9 r1_2_0 r1_2_1 r1_2_2 r1_2_3 r1_2_4 r1_2_5 r1_2_6 r1_2_7 r1_2_8 r1_2_9 r1_3_0 r1_3_1 r1_3_2 r1_3_3 r1_3_4 r1_3_5 r1_3_6 r1_3_7 r1_3_8 r1_3_9 r1_4_0 r1_4_1 r1_4_2 r1_4_3 r1_4_4 r1_4_5 r1_4_6 r1_4_7 r1_4_8 r1_4_9 r1_5_0 r1_5_1 r1_5_2 r1_5_3 r1_5_4 r1_5_5 r1_5_6 r1_5_7 r1_5_8 r1_5_9 r1_6_0 r1_6_1 r1_6_2 r1_6_3 r1_6_4 r1_6_5 r1_6_6 r1_6_7 r1_6_8 r1_6_9 r1_7_0 r1_7_1 r1_7_2 r1_7_3 r1_7_4 r1_7_5 r1_7_6 r1_7_7 r1_7_8 r1_7_9 r1_8_0 r1_8_1 r1_8_2 r1_8_3 r1_8_4 r1_8_5 r1_8_6 r1_8_7 r1_8_8 r1_8_9 r1_9_0 r1_9_1 r1_9_2 r1_9_3 r1_9_4 r1_9_5 r1_9_6 r1_9_7 r1_9_8 r1_9_9 r2_0_-9 r2_0_-8 r2_0_-7 r2_0_-6 r2_0_-5 r2_0_-4 r2_0_-3 r2_0_-2 r2_0_-1 r2_0_0 r2_0_1 r2_0_2 r2_0_3 r2_0_4 r2_0_5 r2_0_6 r2_0_7 r2_0_8 r2_0_9 r2_1_-9 r2_1_-8 r2_1_-7 r2_1_-6 r2_1_-5 r2_1_-4 r2_1_-3 r2_1_-2 r2_1_-1 r2_1_0 r2_1_1 r2_1_2 r2_1_3 r2_1_4 r2_1_5 r2_1_6 r2_1_7 r2_1_8 r2_1_9 r2_2_-9 r2_2_-8 r2_2_-7 r2_2_-6 r2_2_-5 r2_2_-4 r2_2_-3 r2_2_-2 r2_2_-1 r2_2_0 r2_2_1 r2_2_2 r2_2_3 r2_2_4 r2_2_5 r2_2_6 r2_2_7 r2_2_8 r2_2_9 r2_3_-9 r2_3_-8 r2_3_-7 r2_3_-6 r2_3_-5 r2_3_-4 r2_3_-3 r2_3_-2 r2_3_-1 r2_3_0 r2_3_1 r2_3_2 r2_3_3 r2_3_4 r2_3_5 r2_3_6 r2_3_7 r2_3_8 r2_3_9 r2_4_-9 r2_4_-8 r2_4_-7 r2_4_-6 r2_4_-5 r2_4_-4 r2_4_-3 r2_4_-2 r2_4_-1 r2_4_0 r2_4_1 r2_4_2 r2_4_3 r2_4_4 r2_4_5 r2_4_6 r2_4_7 r2_4_8 r2_4_9 r2_5_-9 r2_5_-8 r2_5_-7 r2_5_-6 r2_5_-5 r2_5_-4 r2_5_-3 r2_5_-2 r2_5_-1 r2_5_0 r2_5_1 r2_5_2 r2_5_3 r2_5_4 r2_5_5 r2_5_6 r2_5_7 r2_5_8 r2_5_9 r2_6_-9 r2_6_-8 r2_6_-7 r2_6_-6 r2_6_-5 r2_6_-4 r2_6_-3 r2_6_-2 r2_6_-1 r2_6_0 r2_6_1 r2_6_2 r2_6_3 r2_6_4 r2_6_5 r2_6_6 r2_6_7 r2_6_8 r2_6_9 r2_7_-9 r2_7_-8 r2_7_-7 r2_7_-6 r2_7_-5 r2_7_-4 r2_7_-3 r2_7_-2 r2_7_-1 r2_7_0 r2_7_1 r2_7_2 r2_7_3 r2_7_4 r2_7_5 r2_7_6 r2_7_7 r2_7_8 r2_7_9 r2_8_-9 r2_8_-8 r2_8_-7 r2_8_-6 r2_8_-5 r2_8_-4 r2_8_-3 r2_8_-2 r2_8_-1 r2_8_0 r2_8_1 r2_8_2 r2_8_3 r2_8_4 r2_8_5 r2_8_6 r2_8_7 r2_8_8 r2_8_9 r2_9_-9 r2_9_-8 r2_9_-7 r2_9_-6 r2_9_-5 r2_9_-4 r2_9_-3 r2_9_-2 r2_9_-1 r2_9_0 r2_9_1 r2_9_2 r2_9_3 r2_9_4 r2_9_5 r2_9_6 r2_9_7 r2_9_8 r2_9_9 r3_0_0 r3_0_1 r3_0_2 r3_0_3 r3_0_4 r3_0_5 r3_0_6 r3_0_7 r3_0_8 r3_0_9 r3_0_10 r3_0_11 r3_0_12 r3_0_13 r3_0_14 r3_0_15 r3_0_16 r3_0_17 r3_0_18 r3_1_0 r3_1_1 r3_1_2 r3_1_3 r3_1_4 r3_1_5 r3_1_6 r3_1_7 r3_1_8 r3_1_9 r3_1_10 r3_1_11 r3_1_12 r3_1_13 r3_1_14 r3_1_15 r3_1_16 r3_1_17 r3_1_18 r3_2_0 r3_2_1 r3_2_2 r3_2_3 r3_2_4 r3_2_5 r3_2_6 r3_2_7 r3_2_8 r3_2_9 r3_2_10 r3_2_11 r3_2_12 r3_2_13 r3_2_14 r3_2_15 r3_2_16 r3_2_17 r3_2_18 r3_3_0 r3_3_1 r3_3_2 r3_3_3 r3_3_4 r3_3_5 r3_3_6 r3_3_7 r3_3_8 r3_3_9 r3_3_10 r3_3_11 r3_3_12 r3_3_13 r3_3_14 r3_3_15 r3_3_16 r3_3_17 r3_3_18 r3_4_0 r3_4_1 r3_4_2 r3_4_3 r3_4_4 r3_4_5 r3_4_6 r3_4_7 r3_4_8 r3_4_9 r3_4_10 r3_4_11 r3_4_12 r3_4_13 r3_4_14 r3_4_15 r3_4_16 r3_4_17 r3_4_18 r3_5_0 r3_5_1 r3_5_2 r3_5_3 r3_5_4 r3_5_5 r3_5_6 r3_5_7 r3_5_8 r3_5_9 r3_5_10 r3_5_11 r3_5_12 r3_5_13 r3_5_14 r3_5_15 r3_5_16 r3_5_17 r3_5_18 r3_6_0 r3_6_1 r3_6_2 r3_6_3 r3_6_4 r3_6_5 r3_6_6 r3_6_7 r3_6_8 r3_6_9 r3_6_10 r3_6_11 r3_6_12 r3_6_13 r3_6_14 r3_6_15 r3_6_16 r3_6_17 r3_6_18 r3_7_0 r3_7_1 r3_7_2 r3_7_3 r3_7_4 r3_7_5 r3_7_6 r3_7_7 r3_7_8 r3_7_9 r3_7_10 r3_7_11 r3_7_12 r3_7_13 r3_7_14 r3_7_15 r3_7_16 r3_7_17 r3_7_18 r3_8_0 r3_8_1 r3_8_2 r3_8_3 r3_8_4 r3_8_5 r3_8_6 r3_8_7 r3_8_8 r3_8_9 r3_8_10 r3_8_11 r3_8_12 r3_8_13 r3_8_14 r3_8_15 r3_8_16 r3_8_17 r3_8_18 r3_9_0 r3_9_1 r3_9_2 r3_9_3 r3_9_4 r3_9_5 r3_9_6 r3_9_7 r3_9_8 r3_9_9 r3_9_10 r3_9_11 r3_9_12 r3_9_13 r3_9_14 r3_9_15 r3_9_16 r3_9_17 r3_9_18


General

 x_0 x_1 x_2 x_3 x_4 x_5 x_6 x_7 x_8 x_9



End
